500
1000
266
266
266
266
266
265
264
263
263
262
262
262
262
262
262
262
261
261
261
261
260
260
260
259
259
258
256
256
256
255
255
253
252
252
252
252
251
251
250
248
248
247
247
247
247
246
246
246
245
245
245
244
244
243
242
242
241
241
241
240
240
240
239
239
238
238
238
236
236
235
235
235
234
234
233
233
233
232
232
231
229
229
229
228
228
227
227
227
226
226
226
225
225
223
221
221
221
221
221
220
220
220
219
218
218
218
216
215
215
215
214
214
213
213
212
212
211
211
211
210
210
209
209
209
209
209
207
207
206
205
205
205
205
204
204
204
203
202
202
201
199
199
198
198
198
198
198
197
196
196
195
195
195
194
194
193
193
193
193
192
192
191
191
191
191
190
190
189
189
188
188
188
188
187
187
186
186
186
185
185
183
183
182
182
182
181
181
180
180
180
178
178
178
177
176
176
176
176
175
175
175
174
174
174
173
173
172
171
171
171
171
170
169
168
168
168
167
167
165
165
165
164
163
161
161
161
160
159
159
158
158
157
156
155
155
155
154
154
154
153
153
152
151
151
149
149
148
147
146
144
143
143
143
142
142
142
141
139
139
139
139
138
137
137
136
136
136
135
135
134
134
133
133
132
132
132
131
131
130
129
128
128
127
127
127
126
125
125
125
125
124
124
123
122
122
122
122
122
122
121
121
121
120
118
118
117
117
116
116
116
116
114
114
113
113
113
112
112
112
112
111
111
111
111
110
109
109
109
108
108
107
107
105
105
105
105
105
104
104
103
103
103
102
102
102
101
100
100
100
100
100
99
99
98
98
98
97
95
95
94
94
94
93
91
91
90
90
90
90
89
88
88
88
88
87
86
86
85
85
84
84
84
83
83
83
80
80
80
78
78
76
76
75
75
74
74
73
73
72
71
71
70
69
69
69
68
68
68
67
67
66
65
63
63
61
61
60
59
59
59
59
59
58
58
58
58
57
56
56
54
52
52
52
51
49
49
49
47
46
46
46
45
45
45
45
45
44
44
44
43
43
43
42
41
41
41
40
39
39
36
35
33
33
33
33
32
32
32
32
31
31
30
29
28
28
28
28
27
26
26
25
25
25
25
24
24
22
22
21
20
20
20
20
20
19
18
18
17
16
16
